
Gurobi 7.0.2 (win64, Java) logging started 12/07/17 14:24:03

Warning: Gurobi version mismatch between Java 7.0.1 and C library 7.0.2
Warning: Gurobi version mismatch between Java 7.0.1 and Jni 7.0.2
Optimize a model with 0 rows, 0 columns and 0 nonzeros
Coefficient statistics:
  Matrix range     [0e+00, 0e+00]
  Objective range  [0e+00, 0e+00]
  Bounds range     [0e+00, 0e+00]
  RHS range        [0e+00, 0e+00]
Presolve time: 0.05s
Presolve: All rows and columns removed
Iteration    Objective       Primal Inf.    Dual Inf.      Time
       0   -0.0000000e+00   0.000000e+00   0.000000e+00      0s

Solved in 0 iterations and 0.09 seconds
Optimal objective -0.000000000e+00

Gurobi 7.0.2 (win64, Java) logging started 12/07/17 14:25:27

Warning: Gurobi version mismatch between Java 7.0.1 and C library 7.0.2
Warning: Gurobi version mismatch between Java 7.0.1 and Jni 7.0.2
Optimize a model with 0 rows, 0 columns and 0 nonzeros
Coefficient statistics:
  Matrix range     [0e+00, 0e+00]
  Objective range  [0e+00, 0e+00]
  Bounds range     [0e+00, 0e+00]
  RHS range        [0e+00, 0e+00]
Presolve time: 0.00s
Presolve: All rows and columns removed
Iteration    Objective       Primal Inf.    Dual Inf.      Time
       0   -0.0000000e+00   0.000000e+00   0.000000e+00      0s

Solved in 0 iterations and 0.00 seconds
Optimal objective -0.000000000e+00

Gurobi 7.0.2 (win64, Java) logging started 12/07/17 14:40:53

Warning: Gurobi version mismatch between Java 7.0.1 and C library 7.0.2
Warning: Gurobi version mismatch between Java 7.0.1 and Jni 7.0.2
Optimize a model with 0 rows, 0 columns and 0 nonzeros
Coefficient statistics:
  Matrix range     [0e+00, 0e+00]
  Objective range  [0e+00, 0e+00]
  Bounds range     [0e+00, 0e+00]
  RHS range        [0e+00, 0e+00]
Presolve time: 0.00s
Presolve: All rows and columns removed
Iteration    Objective       Primal Inf.    Dual Inf.      Time
       0   -0.0000000e+00   0.000000e+00   0.000000e+00      0s

Solved in 0 iterations and 0.00 seconds
Optimal objective -0.000000000e+00

Gurobi 7.0.2 (win64, Java) logging started 12/07/17 14:49:59


Gurobi 7.0.2 (win64, Java) logging started 12/07/17 14:49:59

Warning: Gurobi version mismatch between Java 7.0.1 and C library 7.0.2
Warning: Gurobi version mismatch between Java 7.0.1 and Jni 7.0.2
Warning: Gurobi version mismatch between Java 7.0.1 and C library 7.0.2
Warning: Gurobi version mismatch between Java 7.0.1 and Jni 7.0.2
Optimize a model with 4 rows, 2 columns and 6 nonzeros
Optimize a model with 4 rows, 2 columns and 6 nonzeros
ficient statistics:
  Matrix range     [1e+00, 1e+00]
  Objective range  [2e+00, 2e+00]
  Bounds range     [1e+00, 1e+00]
  RHS range        [1e+00, 1e+00]
Found heuristic solution: objective 2
Variable types: 0 continuous, 2 integer (2 binary)
Coefficient statistics:
  Matrix range     [1e+00, 1e+00]
  Objective range  [2e+00, 2e+00]
  Bounds range     [1e+00, 1e+00]
  RHS range        [1e+00, 1e+00]
Found heuristic solution: objective 2
Presolve removed 4 rows and 2 columns
Presolve time: 0.02s
Presolve: All rows and columns removed

Explored 0 nodes (0 simplex iterations) in 0.02 seconds
Thread count was 1 (of 2 available processors)

Solution count 1: 2 
Pool objective bound 2

Optimal solution found (tolerance 1.00e-04)
Best objective 2.000000000000e+00, best bound 2.000000000000e+00, gap 0.0000%
Presolve removed 4 rows and 2 columns
Presolve time: 0.02s
Presolve: All rows and columns removed

Explored 0 nodes (0 simplex iterations) in 0.02 seconds
Thread count was 1 (of 2 available processors)

Solution count 1: 2 
Pool objective bound 2

Optimal solution found (tolerance 1.00e-04)
Best objective 2.000000000000e+00, best bound 2.000000000000e+00, gap 0.0000%

Gurobi 7.0.2 (win64, Java) logging started 12/08/17 11:07:24

Warning: Gurobi version mismatch between Java 7.0.1 and C library 7.0.2
Warning: Gurobi version mismatch between Java 7.0.1 and Jni 7.0.2
Optimize a model with 0 rows, 0 columns and 0 nonzeros
Coefficient statistics:
  Matrix range     [0e+00, 0e+00]
  Objective range  [0e+00, 0e+00]
  Bounds range     [0e+00, 0e+00]
  RHS range        [0e+00, 0e+00]
Presolve time: 0.06s
Presolve: All rows and columns removed
Iteration    Objective       Primal Inf.    Dual Inf.      Time
       0   -0.0000000e+00   0.000000e+00   0.000000e+00      0s

Solved in 0 iterations and 0.10 seconds
Optimal objective -0.000000000e+00

Gurobi 7.0.2 (win64, Java) logging started 12/08/17 14:30:59

Warning: Gurobi version mismatch between Java 7.0.1 and C library 7.0.2
Warning: Gurobi version mismatch between Java 7.0.1 and Jni 7.0.2
Optimize a model with 3 rows, 1 columns and 3 nonzeros
Variable types: 0 continuous, 1 integer (1 binary)
Coefficient statistics:
  Matrix range     [1e+00, 1e+00]
  Objective range  [2e+00, 2e+00]
  Bounds range     [1e+00, 1e+00]
  RHS range        [1e+00, 1e+00]
Found heuristic solution: objective 2

Explored 0 nodes (0 simplex iterations) in 0.04 seconds
Thread count was 1 (of 2 available processors)

Solution count 1: 2 
Pool objective bound 2

Optimal solution found (tolerance 1.00e-04)
Best objective 2.000000000000e+00, best bound 2.000000000000e+00, gap 0.0000%

Gurobi 7.0.2 (win64, Java) logging started 12/08/17 14:38:29

Warning: Gurobi version mismatch between Java 7.0.1 and C library 7.0.2
Warning: Gurobi version mismatch between Java 7.0.1 and Jni 7.0.2
Optimize a model with 3 rows, 1 columns and 3 nonzeros
Variable types: 0 continuous, 1 integer (1 binary)
Coefficient statistics:
  Matrix range     [1e+00, 1e+00]
  Objective range  [2e+00, 2e+00]
  Bounds range     [1e+00, 1e+00]
  RHS range        [1e+00, 1e+00]
Found heuristic solution: objective 2

Explored 0 nodes (0 simplex iterations) in 0.00 seconds
Thread count was 1 (of 2 available processors)

Solution count 1: 2 
Pool objective bound 2

Optimal solution found (tolerance 1.00e-04)
Best objective 2.000000000000e+00, best bound 2.000000000000e+00, gap 0.0000%

Gurobi 7.0.2 (win64, Java) logging started 12/10/17 14:54:12

Warning: Gurobi version mismatch between Java 7.0.1 and C library 7.0.2
Warning: Gurobi version mismatch between Java 7.0.1 and Jni 7.0.2
Optimize a model with 0 rows, 0 columns and 0 nonzeros
Coefficient statistics:
  Matrix range     [0e+00, 0e+00]
  Objective range  [0e+00, 0e+00]
  Bounds range     [0e+00, 0e+00]
  RHS range        [0e+00, 0e+00]
Presolve time: 0.34s
Presolve: All rows and columns removed
Iteration    Objective       Primal Inf.    Dual Inf.      Time
       0   -0.0000000e+00   0.000000e+00   0.000000e+00      1s

Solved in 0 iterations and 0.70 seconds
Optimal objective -0.000000000e+00

Gurobi 7.0.2 (win64, Java) logging started 12/22/17 15:11:09

Warning: Gurobi version mismatch between Java 7.0.1 and C library 7.0.2
Warning: Gurobi version mismatch between Java 7.0.1 and Jni 7.0.2

Gurobi 7.0.2 (win64, Java) logging started 12/22/17 15:13:38

Warning: Gurobi version mismatch between Java 7.0.1 and C library 7.0.2
Warning: Gurobi version mismatch between Java 7.0.1 and Jni 7.0.2
Optimize a model with 0 rows, 0 columns and 0 nonzeros
Coefficient statistics:
  Matrix range     [0e+00, 0e+00]
  Objective range  [0e+00, 0e+00]
  Bounds range     [0e+00, 0e+00]
  RHS range        [0e+00, 0e+00]
Presolve time: 0.07s
Presolve: All rows and columns removed
Iteration    Objective       Primal Inf.    Dual Inf.      Time
       0   -0.0000000e+00   0.000000e+00   0.000000e+00      0s

Solved in 0 iterations and 0.18 seconds
Optimal objective -0.000000000e+00

Gurobi 7.0.2 (win64, Java) logging started 12/22/17 15:19:26

Warning: Gurobi version mismatch between Java 7.0.1 and C library 7.0.2
Warning: Gurobi version mismatch between Java 7.0.1 and Jni 7.0.2
Optimize a model with 0 rows, 0 columns and 0 nonzeros
Coefficient statistics:
  Matrix range     [0e+00, 0e+00]
  Objective range  [0e+00, 0e+00]
  Bounds range     [0e+00, 0e+00]
  RHS range        [0e+00, 0e+00]
Presolve time: 0.00s
Presolve: All rows and columns removed
Iteration    Objective       Primal Inf.    Dual Inf.      Time
       0   -0.0000000e+00   0.000000e+00   0.000000e+00      0s

Solved in 0 iterations and 0.00 seconds
Optimal objective -0.000000000e+00

Gurobi 7.0.2 (win64, Java) logging started 12/22/17 15:20:50

Warning: Gurobi version mismatch between Java 7.0.1 and C library 7.0.2
Warning: Gurobi version mismatch between Java 7.0.1 and Jni 7.0.2

Gurobi 7.0.2 (win64, Java) logging started 12/22/17 15:27:13

Warning: Gurobi version mismatch between Java 7.0.1 and C library 7.0.2
Warning: Gurobi version mismatch between Java 7.0.1 and Jni 7.0.2
Optimize a model with 0 rows, 0 columns and 0 nonzeros
Coefficient statistics:
  Matrix range     [0e+00, 0e+00]
  Objective range  [0e+00, 0e+00]
  Bounds range     [0e+00, 0e+00]
  RHS range        [0e+00, 0e+00]
Presolve time: 0.00s
Presolve: All rows and columns removed
Iteration    Objective       Primal Inf.    Dual Inf.      Time
       0   -0.0000000e+00   0.000000e+00   0.000000e+00      0s

Solved in 0 iterations and 0.00 seconds
Optimal objective -0.000000000e+00

Gurobi 7.0.2 (win64, Java) logging started 12/22/17 15:31:42

Warning: Gurobi version mismatch between Java 7.0.1 and C library 7.0.2
Warning: Gurobi version mismatch between Java 7.0.1 and Jni 7.0.2
Optimize a model with 0 rows, 0 columns and 0 nonzeros
Coefficient statistics:
  Matrix range     [0e+00, 0e+00]
  Objective range  [0e+00, 0e+00]
  Bounds range     [0e+00, 0e+00]
  RHS range        [0e+00, 0e+00]
Presolve time: 0.00s
Presolve: All rows and columns removed
Iteration    Objective       Primal Inf.    Dual Inf.      Time
       0   -0.0000000e+00   0.000000e+00   0.000000e+00      0s

Solved in 0 iterations and 0.00 seconds
Optimal objective -0.000000000e+00

Gurobi 7.0.2 (win64, Java) logging started 12/22/17 15:43:36

Warning: Gurobi version mismatch between Java 7.0.1 and C library 7.0.2
Warning: Gurobi version mismatch between Java 7.0.1 and Jni 7.0.2

Gurobi 7.0.2 (win64, Java) logging started 12/22/17 16:32:52

Warning: Gurobi version mismatch between Java 7.0.1 and C library 7.0.2
Warning: Gurobi version mismatch between Java 7.0.1 and Jni 7.0.2

Gurobi 7.0.2 (win64, Java) logging started 01/10/18 09:34:30

Warning: Gurobi version mismatch between Java 7.0.1 and C library 7.0.2
Warning: Gurobi version mismatch between Java 7.0.1 and Jni 7.0.2
Optimize a model with 0 rows, 0 columns and 0 nonzeros
Coefficient statistics:
  Matrix range     [0e+00, 0e+00]
  Objective range  [0e+00, 0e+00]
  Bounds range     [0e+00, 0e+00]
  RHS range        [0e+00, 0e+00]
Presolve time: 0.03s
Presolve: All rows and columns removed
Iteration    Objective       Primal Inf.    Dual Inf.      Time
       0   -0.0000000e+00   0.000000e+00   0.000000e+00      0s

Solved in 0 iterations and 0.07 seconds
Optimal objective -0.000000000e+00

Gurobi 7.0.2 (win64, Java) logging started 01/10/18 09:40:33

Warning: Gurobi version mismatch between Java 7.0.1 and C library 7.0.2
Warning: Gurobi version mismatch between Java 7.0.1 and Jni 7.0.2
Optimize a model with 0 rows, 0 columns and 0 nonzeros
Coefficient statistics:
  Matrix range     [0e+00, 0e+00]
  Objective range  [0e+00, 0e+00]
  Bounds range     [0e+00, 0e+00]
  RHS range        [0e+00, 0e+00]
Presolve time: 0.00s
Presolve: All rows and columns removed
Iteration    Objective       Primal Inf.    Dual Inf.      Time
       0   -0.0000000e+00   0.000000e+00   0.000000e+00      0s

Solved in 0 iterations and 0.00 seconds
Optimal objective -0.000000000e+00

Gurobi 7.0.2 (win64, Java) logging started 01/10/18 09:40:53

Warning: Gurobi version mismatch between Java 7.0.1 and C library 7.0.2
Warning: Gurobi version mismatch between Java 7.0.1 and Jni 7.0.2
Optimize a model with 0 rows, 0 columns and 0 nonzeros
Coefficient statistics:
  Matrix range     [0e+00, 0e+00]
  Objective range  [0e+00, 0e+00]
  Bounds range     [0e+00, 0e+00]
  RHS range        [0e+00, 0e+00]
Presolve time: 0.00s
Presolve: All rows and columns removed
Iteration    Objective       Primal Inf.    Dual Inf.      Time
       0   -0.0000000e+00   0.000000e+00   0.000000e+00      0s

Solved in 0 iterations and 0.00 seconds
Optimal objective -0.000000000e+00

Gurobi 7.0.2 (win64, Java) logging started 01/10/18 10:10:00

Warning: Gurobi version mismatch between Java 7.0.1 and C library 7.0.2
Warning: Gurobi version mismatch between Java 7.0.1 and Jni 7.0.2
Optimize a model with 0 rows, 0 columns and 0 nonzeros
Coefficient statistics:
  Matrix range     [0e+00, 0e+00]
  Objective range  [0e+00, 0e+00]
  Bounds range     [0e+00, 0e+00]
  RHS range        [0e+00, 0e+00]
Presolve time: 0.00s
Presolve: All rows and columns removed
Iteration    Objective       Primal Inf.    Dual Inf.      Time
       0   -0.0000000e+00   0.000000e+00   0.000000e+00      0s

Solved in 0 iterations and 0.00 seconds
Optimal objective -0.000000000e+00

Gurobi 7.0.2 (win64, Java) logging started 01/10/18 10:58:27

Warning: Gurobi version mismatch between Java 7.0.1 and C library 7.0.2
Warning: Gurobi version mismatch between Java 7.0.1 and Jni 7.0.2

Gurobi 7.0.2 (win64, Java) logging started 01/10/18 10:59:16

Warning: Gurobi version mismatch between Java 7.0.1 and C library 7.0.2
Warning: Gurobi version mismatch between Java 7.0.1 and Jni 7.0.2

Gurobi 7.0.2 (win64, Java) logging started 01/10/18 11:04:53

Warning: Gurobi version mismatch between Java 7.0.1 and C library 7.0.2
Warning: Gurobi version mismatch between Java 7.0.1 and Jni 7.0.2
Optimize a model with 0 rows, 0 columns and 0 nonzeros
Coefficient statistics:
  Matrix range     [0e+00, 0e+00]
  Objective range  [0e+00, 0e+00]
  Bounds range     [0e+00, 0e+00]
  RHS range        [0e+00, 0e+00]
Presolve time: 0.00s
Presolve: All rows and columns removed
Iteration    Objective       Primal Inf.    Dual Inf.      Time
       0   -0.0000000e+00   0.000000e+00   0.000000e+00      0s

Solved in 0 iterations and 0.00 seconds
Optimal objective -0.000000000e+00

Gurobi 7.0.2 (win64, Java) logging started 01/10/18 11:08:02

Warning: Gurobi version mismatch between Java 7.0.1 and C library 7.0.2
Warning: Gurobi version mismatch between Java 7.0.1 and Jni 7.0.2
Optimize a model with 0 rows, 0 columns and 0 nonzeros
Coefficient statistics:
  Matrix range     [0e+00, 0e+00]
  Objective range  [0e+00, 0e+00]
  Bounds range     [0e+00, 0e+00]
  RHS range        [0e+00, 0e+00]
Presolve time: 0.01s
Presolve: All rows and columns removed
Iteration    Objective       Primal Inf.    Dual Inf.      Time
       0   -0.0000000e+00   0.000000e+00   0.000000e+00      0s

Solved in 0 iterations and 0.01 seconds
Optimal objective -0.000000000e+00

Gurobi 7.0.2 (win64, Java) logging started 01/10/18 11:20:29

Warning: Gurobi version mismatch between Java 7.0.1 and C library 7.0.2
Warning: Gurobi version mismatch between Java 7.0.1 and Jni 7.0.2
Optimize a model with 0 rows, 0 columns and 0 nonzeros
Coefficient statistics:
  Matrix range     [0e+00, 0e+00]
  Objective range  [0e+00, 0e+00]
  Bounds range     [0e+00, 0e+00]
  RHS range        [0e+00, 0e+00]
Presolve time: 0.00s
Presolve: All rows and columns removed
Iteration    Objective       Primal Inf.    Dual Inf.      Time
       0   -0.0000000e+00   0.000000e+00   0.000000e+00      0s

Solved in 0 iterations and 0.00 seconds
Optimal objective -0.000000000e+00

Gurobi 7.0.2 (win64, Java) logging started 01/10/18 11:22:05

Warning: Gurobi version mismatch between Java 7.0.1 and C library 7.0.2
Warning: Gurobi version mismatch between Java 7.0.1 and Jni 7.0.2
Optimize a model with 60 rows, 7 columns and 114 nonzeros
Variable types: 0 continuous, 7 integer (7 binary)
Coefficient statistics:
  Matrix range     [1e+00, 1e+00]
  Objective range  [2e+00, 9e+00]
  Bounds range     [1e+00, 1e+00]
  RHS range        [1e+00, 1e+00]
Found heuristic solution: objective 2
Presolve removed 55 rows and 3 columns
Presolve time: 0.06s
Presolved: 5 rows, 4 columns, 10 nonzeros
Found heuristic solution: objective 26.0000000
Variable types: 0 continuous, 4 integer (4 binary)

Root relaxation: cutoff, 2 iterations, 0.03 seconds

    Nodes    |    Current Node    |     Objective Bounds      |     Work
 Expl Unexpl |  Obj  Depth IntInf | Incumbent    BestBd   Gap | It/Node Time

     0     0     cutoff    0        26.00000   28.99997  11.5%     -    0s

Explored 0 nodes (2 simplex iterations) in 0.24 seconds
Thread count was 2 (of 2 available processors)

Solution count 2: 26 11 
Pool objective bound 26

Optimal solution found (tolerance 1.00e-04)
Best objective 2.600000000000e+01, best bound 2.600000000000e+01, gap 0.0000%

Gurobi 7.0.2 (win64, Java) logging started 01/10/18 11:54:21

Warning: Gurobi version mismatch between Java 7.0.1 and C library 7.0.2
Warning: Gurobi version mismatch between Java 7.0.1 and Jni 7.0.2
Optimize a model with 0 rows, 0 columns and 0 nonzeros
Coefficient statistics:
  Matrix range     [0e+00, 0e+00]
  Objective range  [0e+00, 0e+00]
  Bounds range     [0e+00, 0e+00]
  RHS range        [0e+00, 0e+00]
Presolve time: 0.00s
Presolve: All rows and columns removed
Iteration    Objective       Primal Inf.    Dual Inf.      Time
       0   -0.0000000e+00   0.000000e+00   0.000000e+00      0s

Solved in 0 iterations and 0.00 seconds
Optimal objective -0.000000000e+00

Gurobi 7.0.2 (win64, Java) logging started 01/10/18 12:14:18

Warning: Gurobi version mismatch between Java 7.0.1 and C library 7.0.2
Warning: Gurobi version mismatch between Java 7.0.1 and Jni 7.0.2
Optimize a model with 0 rows, 0 columns and 0 nonzeros
Coefficient statistics:
  Matrix range     [0e+00, 0e+00]
  Objective range  [0e+00, 0e+00]
  Bounds range     [0e+00, 0e+00]
  RHS range        [0e+00, 0e+00]
Presolve time: 0.00s
Presolve: All rows and columns removed
Iteration    Objective       Primal Inf.    Dual Inf.      Time
       0   -0.0000000e+00   0.000000e+00   0.000000e+00      0s

Solved in 0 iterations and 0.00 seconds
Optimal objective -0.000000000e+00

Gurobi 7.0.2 (win64, Java) logging started 01/10/18 12:15:40

Warning: Gurobi version mismatch between Java 7.0.1 and C library 7.0.2
Warning: Gurobi version mismatch between Java 7.0.1 and Jni 7.0.2
Optimize a model with 0 rows, 0 columns and 0 nonzeros
Coefficient statistics:
  Matrix range     [0e+00, 0e+00]
  Objective range  [0e+00, 0e+00]
  Bounds range     [0e+00, 0e+00]
  RHS range        [0e+00, 0e+00]
Presolve time: 0.00s
Presolve: All rows and columns removed
Iteration    Objective       Primal Inf.    Dual Inf.      Time
       0   -0.0000000e+00   0.000000e+00   0.000000e+00      0s

Solved in 0 iterations and 0.00 seconds
Optimal objective -0.000000000e+00

Gurobi 7.0.2 (win64, Java) logging started 01/10/18 13:25:54

Warning: Gurobi version mismatch between Java 7.0.1 and C library 7.0.2
Warning: Gurobi version mismatch between Java 7.0.1 and Jni 7.0.2
Optimize a model with 0 rows, 0 columns and 0 nonzeros
Coefficient statistics:
  Matrix range     [0e+00, 0e+00]
  Objective range  [0e+00, 0e+00]
  Bounds range     [0e+00, 0e+00]
  RHS range        [0e+00, 0e+00]
Presolve time: 0.04s
Presolve: All rows and columns removed
Iteration    Objective       Primal Inf.    Dual Inf.      Time
       0   -0.0000000e+00   0.000000e+00   0.000000e+00      0s

Solved in 0 iterations and 0.11 seconds
Optimal objective -0.000000000e+00

Gurobi 7.0.2 (win64, Java) logging started 01/10/18 13:33:06

Warning: Gurobi version mismatch between Java 7.0.1 and C library 7.0.2
Warning: Gurobi version mismatch between Java 7.0.1 and Jni 7.0.2

Gurobi 7.0.2 (win64, Java) logging started 01/10/18 13:41:14

Warning: Gurobi version mismatch between Java 7.0.1 and C library 7.0.2
Warning: Gurobi version mismatch between Java 7.0.1 and Jni 7.0.2

Gurobi 7.0.2 (win64, Java) logging started 01/10/18 13:44:20

Warning: Gurobi version mismatch between Java 7.0.1 and C library 7.0.2
Warning: Gurobi version mismatch between Java 7.0.1 and Jni 7.0.2
Optimize a model with 0 rows, 0 columns and 0 nonzeros
Coefficient statistics:
  Matrix range     [0e+00, 0e+00]
  Objective range  [0e+00, 0e+00]
  Bounds range     [0e+00, 0e+00]
  RHS range        [0e+00, 0e+00]
Presolve time: 0.00s
Presolve: All rows and columns removed
Iteration    Objective       Primal Inf.    Dual Inf.      Time
       0   -0.0000000e+00   0.000000e+00   0.000000e+00      0s

Solved in 0 iterations and 0.00 seconds
Optimal objective -0.000000000e+00

Gurobi 7.0.2 (win64, Java) logging started 01/10/18 13:45:46

Warning: Gurobi version mismatch between Java 7.0.1 and C library 7.0.2
Warning: Gurobi version mismatch between Java 7.0.1 and Jni 7.0.2
Optimize a model with 0 rows, 0 columns and 0 nonzeros
Coefficient statistics:
  Matrix range     [0e+00, 0e+00]
  Objective range  [0e+00, 0e+00]
  Bounds range     [0e+00, 0e+00]
  RHS range        [0e+00, 0e+00]
Presolve time: 0.00s
Presolve: All rows and columns removed
Iteration    Objective       Primal Inf.    Dual Inf.      Time
       0   -0.0000000e+00   0.000000e+00   0.000000e+00      0s

Solved in 0 iterations and 0.00 seconds
Optimal objective -0.000000000e+00

Gurobi 7.0.2 (win64, Java) logging started 01/10/18 13:46:36

Warning: Gurobi version mismatch between Java 7.0.1 and C library 7.0.2
Warning: Gurobi version mismatch between Java 7.0.1 and Jni 7.0.2
Optimize a model with 0 rows, 0 columns and 0 nonzeros
Coefficient statistics:
  Matrix range     [0e+00, 0e+00]
  Objective range  [0e+00, 0e+00]
  Bounds range     [0e+00, 0e+00]
  RHS range        [0e+00, 0e+00]
Presolve time: 0.00s
Presolve: All rows and columns removed
Iteration    Objective       Primal Inf.    Dual Inf.      Time
       0   -0.0000000e+00   0.000000e+00   0.000000e+00      0s

Solved in 0 iterations and 0.00 seconds
Optimal objective -0.000000000e+00

Gurobi 7.0.2 (win64, Java) logging started 01/10/18 13:50:37

Warning: Gurobi version mismatch between Java 7.0.1 and C library 7.0.2
Warning: Gurobi version mismatch between Java 7.0.1 and Jni 7.0.2
Optimize a model with 0 rows, 0 columns and 0 nonzeros
Coefficient statistics:
  Matrix range     [0e+00, 0e+00]
  Objective range  [0e+00, 0e+00]
  Bounds range     [0e+00, 0e+00]
  RHS range        [0e+00, 0e+00]
Presolve time: 0.00s
Presolve: All rows and columns removed
Iteration    Objective       Primal Inf.    Dual Inf.      Time
       0   -0.0000000e+00   0.000000e+00   0.000000e+00      0s

Solved in 0 iterations and 0.00 seconds
Optimal objective -0.000000000e+00

Gurobi 7.0.2 (win64, Java) logging started 01/10/18 15:11:43

Warning: Gurobi version mismatch between Java 7.0.1 and C library 7.0.2
Warning: Gurobi version mismatch between Java 7.0.1 and Jni 7.0.2
Optimize a model with 42 rows, 4 columns and 54 nonzeros
Variable types: 0 continuous, 4 integer (4 binary)
Coefficient statistics:
  Matrix range     [1e+00, 1e+00]
  Objective range  [2e+00, 9e+00]
  Bounds range     [1e+00, 1e+00]
  RHS range        [1e+00, 1e+00]
Found heuristic solution: objective 2
Presolve removed 42 rows and 4 columns
Presolve time: 0.03s
Presolve: All rows and columns removed

Explored 0 nodes (0 simplex iterations) in 0.07 seconds
Thread count was 1 (of 2 available processors)

Solution count 1: 26 
Pool objective bound 26

Optimal solution found (tolerance 1.00e-04)
Best objective 2.600000000000e+01, best bound 2.600000000000e+01, gap 0.0000%

Gurobi 7.0.2 (win64, Java) logging started 01/10/18 15:25:54

Warning: Gurobi version mismatch between Java 7.0.1 and C library 7.0.2
Warning: Gurobi version mismatch between Java 7.0.1 and Jni 7.0.2
Optimize a model with 42 rows, 4 columns and 54 nonzeros
Variable types: 0 continuous, 4 integer (4 binary)
Coefficient statistics:
  Matrix range     [1e+00, 1e+00]
  Objective range  [2e+00, 9e+00]
  Bounds range     [1e+00, 1e+00]
  RHS range        [1e+00, 1e+00]
Found heuristic solution: objective 2
Presolve removed 42 rows and 4 columns
Presolve time: 0.00s
Presolve: All rows and columns removed

Explored 0 nodes (0 simplex iterations) in 0.00 seconds
Thread count was 1 (of 2 available processors)

Solution count 1: 26 
Pool objective bound 26

Optimal solution found (tolerance 1.00e-04)
Best objective 2.600000000000e+01, best bound 2.600000000000e+01, gap 0.0000%

Gurobi 7.0.2 (win64, Java) logging started 01/10/18 15:32:10

Warning: Gurobi version mismatch between Java 7.0.1 and C library 7.0.2
Warning: Gurobi version mismatch between Java 7.0.1 and Jni 7.0.2
Optimize a model with 42 rows, 4 columns and 54 nonzeros
Variable types: 0 continuous, 4 integer (4 binary)
Coefficient statistics:
  Matrix range     [1e+00, 1e+00]
  Objective range  [2e+00, 9e+00]
  Bounds range     [1e+00, 1e+00]
  RHS range        [1e+00, 1e+00]
Found heuristic solution: objective 2
Presolve removed 42 rows and 4 columns
Presolve time: 0.00s
Presolve: All rows and columns removed

Explored 0 nodes (0 simplex iterations) in 0.00 seconds
Thread count was 1 (of 2 available processors)

Solution count 1: 26 
Pool objective bound 26

Optimal solution found (tolerance 1.00e-04)
Best objective 2.600000000000e+01, best bound 2.600000000000e+01, gap 0.0000%

Gurobi 7.0.2 (win64, Java) logging started 01/12/18 13:37:25

Warning: Gurobi version mismatch between Java 7.0.1 and C library 7.0.2
Warning: Gurobi version mismatch between Java 7.0.1 and Jni 7.0.2
Optimize a model with 0 rows, 0 columns and 0 nonzeros
Coefficient statistics:
  Matrix range     [0e+00, 0e+00]
  Objective range  [0e+00, 0e+00]
  Bounds range     [0e+00, 0e+00]
  RHS range        [0e+00, 0e+00]
Presolve time: 0.19s
Presolve: All rows and columns removed
Iteration    Objective       Primal Inf.    Dual Inf.      Time
       0   -0.0000000e+00   0.000000e+00   0.000000e+00      0s

Solved in 0 iterations and 0.44 seconds
Optimal objective -0.000000000e+00

Gurobi 7.0.2 (win64, Java) logging started 01/12/18 13:47:20

Warning: Gurobi version mismatch between Java 7.0.1 and C library 7.0.2
Warning: Gurobi version mismatch between Java 7.0.1 and Jni 7.0.2
Optimize a model with 0 rows, 0 columns and 0 nonzeros
Coefficient statistics:
  Matrix range     [0e+00, 0e+00]
  Objective range  [0e+00, 0e+00]
  Bounds range     [0e+00, 0e+00]
  RHS range        [0e+00, 0e+00]
Presolve time: 0.00s
Presolve: All rows and columns removed
Iteration    Objective       Primal Inf.    Dual Inf.      Time
       0   -0.0000000e+00   0.000000e+00   0.000000e+00      0s

Solved in 0 iterations and 0.00 seconds
Optimal objective -0.000000000e+00

Gurobi 7.0.2 (win64, Java) logging started 01/12/18 13:48:40

Warning: Gurobi version mismatch between Java 7.0.1 and C library 7.0.2
Warning: Gurobi version mismatch between Java 7.0.1 and Jni 7.0.2
Optimize a model with 0 rows, 0 columns and 0 nonzeros
Coefficient statistics:
  Matrix range     [0e+00, 0e+00]
  Objective range  [0e+00, 0e+00]
  Bounds range     [0e+00, 0e+00]
  RHS range        [0e+00, 0e+00]
Presolve time: 0.00s
Presolve: All rows and columns removed
Iteration    Objective       Primal Inf.    Dual Inf.      Time
       0   -0.0000000e+00   0.000000e+00   0.000000e+00      0s

Solved in 0 iterations and 0.00 seconds
Optimal objective -0.000000000e+00

Gurobi 7.0.2 (win64, Java) logging started 01/12/18 14:58:30

Warning: Gurobi version mismatch between Java 7.0.1 and C library 7.0.2
Warning: Gurobi version mismatch between Java 7.0.1 and Jni 7.0.2
Optimize a model with 0 rows, 0 columns and 0 nonzeros
Coefficient statistics:
  Matrix range     [0e+00, 0e+00]
  Objective range  [0e+00, 0e+00]
  Bounds range     [0e+00, 0e+00]
  RHS range        [0e+00, 0e+00]
Presolve time: 0.00s
Presolve: All rows and columns removed
Iteration    Objective       Primal Inf.    Dual Inf.      Time
       0   -0.0000000e+00   0.000000e+00   0.000000e+00      0s

Solved in 0 iterations and 0.00 seconds
Optimal objective -0.000000000e+00

Gurobi 7.0.2 (win64, Java) logging started 01/12/18 16:03:05

Warning: Gurobi version mismatch between Java 7.0.1 and C library 7.0.2
Warning: Gurobi version mismatch between Java 7.0.1 and Jni 7.0.2
Optimize a model with 45 rows, 8 columns and 96 nonzeros
Variable types: 0 continuous, 8 integer (8 binary)
Coefficient statistics:
  Matrix range     [1e+00, 1e+00]
  Objective range  [2e+00, 9e+00]
  Bounds range     [1e+00, 1e+00]
  RHS range        [1e+00, 1e+00]
Found heuristic solution: objective 4
Presolve removed 36 rows and 0 columns
Presolve time: 0.05s
Presolved: 9 rows, 8 columns, 21 nonzeros
Variable types: 0 continuous, 8 integer (8 binary)

Root relaxation: objective 1.900000e+01, 5 iterations, 0.09 seconds

    Nodes    |    Current Node    |     Objective Bounds      |     Work
 Expl Unexpl |  Obj  Depth IntInf | Incumbent    BestBd   Gap | It/Node Time

*    0     0               0      19.0000000   19.00000  0.00%     -    0s

Explored 0 nodes (5 simplex iterations) in 0.24 seconds
Thread count was 2 (of 2 available processors)

Solution count 2: 19 4 
Pool objective bound 19

Optimal solution found (tolerance 1.00e-04)
Best objective 1.900000000000e+01, best bound 1.900000000000e+01, gap 0.0000%
